c CNF file corresponding to a (partial) station packing problem.
p cnf 3795 229
1 2 3 4 5 6 7 8 9 10 11 12 13 14 0
-1 -2 0
-1 -3 0
-1 -4 0
-1 -5 0
-1 -6 0
-1 -7 0
-1 -8 0
-1 -9 0
-1 -10 0
-1 -11 0
-1 -12 0
-1 -13 0
-1 -14 0
-2 -3 0
-2 -4 0
-2 -5 0
-2 -6 0
-2 -7 0
-2 -8 0
-2 -9 0
-2 -10 0
-2 -11 0
-2 -12 0
-2 -13 0
-2 -14 0
-3 -4 0
-3 -5 0
-3 -6 0
-3 -7 0
-3 -8 0
-3 -9 0
-3 -10 0
-3 -11 0
-3 -12 0
-3 -13 0
-3 -14 0
-4 -5 0
-4 -6 0
-4 -7 0
-4 -8 0
-4 -9 0
-4 -10 0
-4 -11 0
-4 -12 0
-4 -13 0
-4 -14 0
-5 -6 0
-5 -7 0
-5 -8 0
-5 -9 0
-5 -10 0
-5 -11 0
-5 -12 0
-5 -13 0
-5 -14 0
-6 -7 0
-6 -8 0
-6 -9 0
-6 -10 0
-6 -11 0
-6 -12 0
-6 -13 0
-6 -14 0
-7 -8 0
-7 -9 0
-7 -10 0
-7 -11 0
-7 -12 0
-7 -13 0
-7 -14 0
-8 -9 0
-8 -10 0
-8 -11 0
-8 -12 0
-8 -13 0
-8 -14 0
-9 -10 0
-9 -11 0
-9 -12 0
-9 -13 0
-9 -14 0
-10 -11 0
-10 -12 0
-10 -13 0
-10 -14 0
-11 -12 0
-11 -13 0
-11 -14 0
-12 -13 0
-12 -14 0
-13 -14 0
3779 3780 3781 3782 3783 3784 3785 3786 3787 3788 3789 3790 3791 3792 3793 3794 3795 0
-3779 -3780 0
-3779 -3781 0
-3779 -3782 0
-3779 -3783 0
-3779 -3784 0
-3779 -3785 0
-3779 -3786 0
-3779 -3787 0
-3779 -3788 0
-3779 -3789 0
-3779 -3790 0
-3779 -3791 0
-3779 -3792 0
-3779 -3793 0
-3779 -3794 0
-3779 -3795 0
-3780 -3781 0
-3780 -3782 0
-3780 -3783 0
-3780 -3784 0
-3780 -3785 0
-3780 -3786 0
-3780 -3787 0
-3780 -3788 0
-3780 -3789 0
-3780 -3790 0
-3780 -3791 0
-3780 -3792 0
-3780 -3793 0
-3780 -3794 0
-3780 -3795 0
-3781 -3782 0
-3781 -3783 0
-3781 -3784 0
-3781 -3785 0
-3781 -3786 0
-3781 -3787 0
-3781 -3788 0
-3781 -3789 0
-3781 -3790 0
-3781 -3791 0
-3781 -3792 0
-3781 -3793 0
-3781 -3794 0
-3781 -3795 0
-3782 -3783 0
-3782 -3784 0
-3782 -3785 0
-3782 -3786 0
-3782 -3787 0
-3782 -3788 0
-3782 -3789 0
-3782 -3790 0
-3782 -3791 0
-3782 -3792 0
-3782 -3793 0
-3782 -3794 0
-3782 -3795 0
-3783 -3784 0
-3783 -3785 0
-3783 -3786 0
-3783 -3787 0
-3783 -3788 0
-3783 -3789 0
-3783 -3790 0
-3783 -3791 0
-3783 -3792 0
-3783 -3793 0
-3783 -3794 0
-3783 -3795 0
-3784 -3785 0
-3784 -3786 0
-3784 -3787 0
-3784 -3788 0
-3784 -3789 0
-3784 -3790 0
-3784 -3791 0
-3784 -3792 0
-3784 -3793 0
-3784 -3794 0
-3784 -3795 0
-3785 -3786 0
-3785 -3787 0
-3785 -3788 0
-3785 -3789 0
-3785 -3790 0
-3785 -3791 0
-3785 -3792 0
-3785 -3793 0
-3785 -3794 0
-3785 -3795 0
-3786 -3787 0
-3786 -3788 0
-3786 -3789 0
-3786 -3790 0
-3786 -3791 0
-3786 -3792 0
-3786 -3793 0
-3786 -3794 0
-3786 -3795 0
-3787 -3788 0
-3787 -3789 0
-3787 -3790 0
-3787 -3791 0
-3787 -3792 0
-3787 -3793 0
-3787 -3794 0
-3787 -3795 0
-3788 -3789 0
-3788 -3790 0
-3788 -3791 0
-3788 -3792 0
-3788 -3793 0
-3788 -3794 0
-3788 -3795 0
-3789 -3790 0
-3789 -3791 0
-3789 -3792 0
-3789 -3793 0
-3789 -3794 0
-3789 -3795 0
-3790 -3791 0
-3790 -3792 0
-3790 -3793 0
-3790 -3794 0
-3790 -3795 0
-3791 -3792 0
-3791 -3793 0
-3791 -3794 0
-3791 -3795 0
-3792 -3793 0
-3792 -3794 0
-3792 -3795 0
-3793 -3794 0
-3793 -3795 0
-3794 -3795 0
